c 1 2 3 38 4 39 5 43 24 11 25 12 26 13 27 14 28 15 6 7 8 9 10 16 17 18 19 20 21 22 23 29 30 31 32 33 34 35 36 37 40 41 42 44 
p wcnf 71 44 8
8 -1 6 
8 -2 7 
8 -3 8 
8 -4 9 
8 -5 10 
8 -11 1 
8 -12 1 
8 -13 1 
8 -14 1 
8 -15 1 
8 -11 16 
8 -11 17 
8 -11 18 
8 -11 19 
8 -12 17 
8 -12 18 
8 -12 19 
8 -12 20 
8 -13 18 
8 -13 19 
8 -13 20 
8 -13 21 
8 -14 19 
8 -14 20 
8 -14 21 
8 -14 22 
8 -15 20 
8 -15 21 
8 -15 22 
8 -15 23 
8 -24 1 
8 -25 1 
8 -26 1 
8 -27 1 
8 -28 1 
8 -24 29 
8 -24 30 
8 -24 31 
8 -24 32 
8 -24 33 
8 -25 30 
8 -25 31 
8 -25 32 
8 -25 33 
8 -25 34 
8 -26 31 
8 -26 32 
8 -26 33 
8 -26 34 
8 -26 35 
8 -27 32 
8 -27 33 
8 -27 34 
8 -27 35 
8 -27 36 
8 -28 33 
8 -28 34 
8 -28 35 
8 -28 36 
8 -28 37 
8 -38 11 
8 -39 11 
8 -38 40 
8 -38 41 
8 -39 41 
8 -39 42 
8 -43 24 38 
8 -43 44 
8 11 12 13 14 15 24 25 26 27 28 
8 11 12 13 14 15 24 25 26 27 28 38 39 
4 43 
